Tried aggregator 2 times.
MIP Presolve eliminated 4 rows and 1 columns.
MIP Presolve modified 24 coefficients.
Aggregator did 24 substitutions.
Reduced MIP has 146 rows, 133 columns, and 380 nonzeros.
Reduced MIP has 76 binaries, 9 generals, 0 SOSs, and 24 indicators.
Presolve time = 0.00 sec. (0.31 ticks)
Found incumbent of value 8.000000 after 0.00 sec. (0.55 ticks)
Probing fixed 18 vars, tightened 36 bounds.
Probing time = 0.00 sec. (0.41 ticks)
Tried aggregator 2 times.
MIP Presolve eliminated 28 rows and 28 columns.
MIP Presolve modified 72 coefficients.
Aggregator did 38 substitutions.
Reduced MIP has 80 rows, 67 columns, and 248 nonzeros.
Reduced MIP has 40 binaries, 27 generals, 0 SOSs, and 24 indicators.
Presolve time = 0.00 sec. (0.28 ticks)
Probing time = 0.00 sec. (0.08 ticks)
Tried aggregator 1 time.
Reduced MIP has 80 rows, 67 columns, and 248 nonzeros.
Reduced MIP has 40 binaries, 27 generals, 0 SOSs, and 24 indicators.
Presolve time = 0.00 sec. (0.11 ticks)
Probing time = 0.00 sec. (0.08 ticks)
MIP emphasis: balance optimality and feasibility.
MIP search method: dynamic search.
Parallel mode: deterministic, using up to 4 threads.
Root relaxation solution time = 0.00 sec. (0.16 ticks)

        Nodes                                         Cuts/
   Node  Left     Objective  IInf  Best Integer    Best Bound    ItCnt     Gap

*     0+    0                            8.0000        1.0000       28   87.50%
      0     0        1.0000    24        8.0000        1.0000       28   87.50%
*     0     0      integral     0        1.0000      Cuts: 12       38    0.00%
      0     0        cutoff              1.0000        1.0000       38    0.00%
Elapsed time = 0.02 sec. (3.28 ticks, tree = 0.00 MB, solutions = 2)

Implied bound cuts applied:  5
Mixed integer rounding cuts applied:  2
Zero-half cuts applied:  4
Gomory fractional cuts applied:  1

Root node processing (before b&c):
  Real time             =    0.02 sec. (3.28 ticks)
Parallel b&c, 4 threads:
  Real time             =    0.00 sec. (0.00 ticks)
  Sync time (average)   =    0.00 sec.
  Wait time (average)   =    0.00 sec.
                          ------------
Total (root+branch&cut) =    0.02 sec. (3.28 ticks)
